50
237 104 397 155 67 402 918 801 766 222 537 277 173 107 215 928 829 807 801 194 310 627 732 855 881 87 606 672 506 178 474 90 935 866 548 301 909 573 883 849 509 414 599 432 162 306 813 44 47 627 
4993 2191 8365 3266 1411 8470 19343 16878 16140 4677 11315 5836 3645 2254 4530 19554 17468 17004 16878 4087 6532 13211 15424 18015 18563 1833 12769 14159 10662 3750 9987 1896 19701 18247 11547 6342 19153 12073 18605 17889 10725 8723 12621 9102 3413 6447 17130 927 990 13211 
12263
